sat
(:SPACER-cex-depth                    5
 :SPACER-expand-pob-undef             20
 :SPACER-inductive-gen                20
 :SPACER-inductive-gen-weaken-fail    34
 :SPACER-inductive-gen-weaken-success 2
 :SPACER-max-depth                    5
 :SPACER-max-query-lvl                5
 :SPACER-non-local-gen                1
 :SPACER-num-active-lemmas            17
 :SPACER-num-ctp-blocked              5
 :SPACER-num-invariants               2
 :SPACER-num-is_invariant             34
 :SPACER-num-lemmas                   26
 :SPACER-num-pobs                     22
 :SPACER-num-propagations             10
 :SPACER-num-queries                  33
 :SPACER-num-reach-queries            6
 :SPACER-num-reuse-reach-facts        6
 :added-eqs                           94954
 :arith-assert-diseq                  11090
 :arith-assert-lower                  58132
 :arith-assert-upper                  57582
 :arith-bound-prop                    48484
 :arith-branch-var                    19458
 :arith-conflicts                     4442
 :arith-eq-adapter                    11230
 :arith-fixed-eqs                     27814
 :arith-gcd-conflicts                 422
 :arith-gcd-tests                     16493466
 :arith-gomory-cuts                   16948
 :arith-ineq-splits                   19458
 :arith-num-rows                      2872
 :arith-offset-eqs                    13274
 :arith-patches                       38874
 :arith-patches_succ                  14
 :arith-pivots                        98058
 :arith-row-summations                37484364
 :arith-tableau-max-columns           4624
 :arith-tableau-max-rows              2872
 :conflicts                           5790
 :decisions                           1750722
 :del-clause                          38018
 :final-checks                        39494
 :iuc_solver.num_proxies              69
 :max-memory                          84.33
 :memory                              83.62
 :minimized-lits                      30312
 :mk-bool-var                         85658
 :mk-clause                           78724
 :num-allocs                          3980533308
 :num-checks                          388
 :pool_solver.checks                  194
 :pool_solver.checks.sat              52
 :pool_solver.checks.undef            56
 :propagations                        1291722
 :restarts                            28
 :rlimit-count                        1590665298
 :time                                217.25
 :time.iuc_solver.get_iuc             0.03
 :time.iuc_solver.get_iuc.hyp_reduce1 0.01
 :time.iuc_solver.get_iuc.hyp_reduce2 0.01
 :time.iuc_solver.get_iuc.learn_core  0.00
 :time.pool_solver.proof              0.00
 :time.pool_solver.smt.total          217.09
 :time.pool_solver.smt.total.sat      115.82
 :time.pool_solver.smt.total.undef    0.36
 :time.spacer.init_rules              0.00
 :time.spacer.mbp                     0.01
 :time.spacer.solve                   217.24
 :time.spacer.solve.propagate         2.11
 :time.spacer.solve.reach             215.13
 :time.spacer.solve.reach.children    0.01
 :time.spacer.solve.reach.cluster     0.01
 :time.spacer.solve.reach.gen.global  0.00
 :time.spacer.solve.reach.gen.ind     86.00
 :time.spacer.solve.reach.is-reach    0.23)
(:max-memory   84.33
 :memory       83.62
 :num-allocs   3980533308
 :rlimit-count 1590665298
 :time         217.25
 :total-time   217.26)
